[[88, 89, 90, 99, 98, 97, 96, 87, 86, 95, 94, 93, 92, 91, 82, 83, 73, 84, 85, 76, 75, 74, 66, 67, 68, 59, 58, 65, 64, 56, 57, 55], [46, 47, 48, 39, 40, 38, 29, 37, 28, 30, 31, 21, 22, 19, 20, 11, 10, 2, 12, 3, 4, 5, 6, 14, 13, 15, 23, 24, 25, 16, 7, 8, 9, 18], [17, 26, 27, 35, 36, 44, 34, 43, 33, 32, 41, 42, 50, 49, 60, 51, 52, 45, 54, 53, 63, 62, 61, 72, 81, 71, 80, 70, 69, 78, 77, 79]]